750
[153,160,165,179,188,191,193,194,202,204,206,210,213,217,226,228,231,234,237,238,239,243,245,246,247,249,252,259,261,266,268,270,271,275,277,278,280,281,283,286,290,292,293,295,297,299,300,304,306,308,311,312,321,330,334,336,338,351,362,367,368,372,381,390,393,400,401,409,421,428,431,434,441,442,446,453,465,472,473,483,487,488,494,496,498,501,509,525]
[1,2,1,1,2,1,1,1,1,1,1,1,2,1,1,1,1,1,1,1,1,1,1,1,1,1,1,1,1,2,1,1,1,1,1,1,1,1,1,1,2,1,1,1,2,2,1,1,2,1,1,1,1,1,1,1,1,1,1,1,1,1,1,1,1,1,1,1,1,1,2,1,1,1,1,1,2,1,1,1,2,1,2,1,1,1,1,1]
